J = 5;
K = 5;
Ej = [ 50,48,25,41,53 ];
Aj = [ 1,0.8,1.5,0.9,1.1 ];
Gj = [ 0,0,0,0,0 ];
Fj = [ 35,31,26,29,38 ];
Vj = [ 0.100,0.125,0.150,0.115,0.165 ];
Pj = [ 60,90,55,30,75 ];
Pj_max = [ 380,270,180,300,450 ];
Supj = [ 280,200,150,190,330 ];
Infj = [ 300,150,100,250,300 ];
P0j = [ 0,0,0,0,0 ];
Dk = [ 350,500,400,350,600 ];
Rk = [ 25,60,55,65,80 ];